(declare-const a Real)
(declare-const b Real)
(declare-const c Real)
(assert (= (* a b c) 1))
(assert (> a 0))
(assert (> b 0))
(assert (> c 0))
(assert (not (<= (+ (* 554976 (pow a 4)) (* 554976 (pow b 4)) (* (pow (* (pow a (* 17794560 (pow a 2))) (pow b (* 22734336 (pow b 2)))) (pow (+ (* 8897280 (pow a 2)) (* 11367168 (pow b 2))) -1)) (+ (* -11367168 (pow b 2)) (* -8897280 (pow a 2)))) (* -21233664 (pow a (pow 3 -1)) (pow b (/ 11 3))) (* -10616832 (pow a (/ 10 3)) (pow b (/ 2 3))) (* 3329856 (pow a 2) (pow b 2)) (* 10750848 b (pow a 3)) (* 36924288 a (pow b 3))) 0)))
(check-sat)
(get-model)
(exit)